RAW/CMTT/fspd-long/CMT11T.vrp_seed-0.out
998.8602217	173.822	205.782
